
Gurobi 10.0.1 (mac64[arm]) logging started Fri Sep 22 17:09:58 2023

Set parameter LogFile to value "results/scenario_capacity/CAP_h/CAP_h_-50/mip_log.txt"
Gurobi Optimizer version 10.0.1 build v10.0.1rc0 (mac64[arm])

CPU model: Apple M1
Thread count: 8 physical cores, 8 logical processors, using up to 8 threads

Optimize a model with 1724 rows, 6293 columns and 24662 nonzeros
Model fingerprint: 0xb0a769dd
Model has 8978 general constraints
Variable types: 1 continuous, 6292 integer (408 binary)
Coefficient statistics:
  Matrix range     [6e-02, 3e+05]
  Objective range  [9e-02, 2e+05]
  Bounds range     [1e+00, 2e+07]
  RHS range        [4e+03, 2e+04]
  GenCon rhs range [1e+00, 1e+00]
  GenCon coe range [1e+00, 1e+00]
Presolve removed 114 rows and 546 columns
Presolve time: 0.11s
Presolved: 1610 rows, 5747 columns, 22997 nonzeros
Presolved model has 4 SOS constraint(s)
Variable types: 0 continuous, 5747 integer (34 binary)

Root relaxation: objective 5.158397e+07, 6626 iterations, 0.06 seconds (0.08 work units)

    Nodes    |    Current Node    |     Objective Bounds      |     Work
 Expl Unexpl |  Obj  Depth IntInf | Incumbent    BestBd   Gap | It/Node Time

     0     0 5.1584e+07    0  359          - 5.1584e+07      -     -    0s
     0     0 5.1662e+07    0  593          - 5.1662e+07      -     -    0s
     0     0 5.1674e+07    0  596          - 5.1674e+07      -     -    0s
     0     0 5.1675e+07    0  599          - 5.1675e+07      -     -    0s
H    0     0                    5.845859e+07 5.2236e+07  10.6%     -    0s
     0     0 5.2236e+07    0  894 5.8459e+07 5.2236e+07  10.6%     -    0s
     0     0 5.2236e+07    0  917 5.8459e+07 5.2236e+07  10.6%     -    0s
     0     0 5.2236e+07    0 1020 5.8459e+07 5.2236e+07  10.6%     -    0s
     0     0 5.2236e+07    0 1020 5.8459e+07 5.2236e+07  10.6%     -    0s
     0     0 5.2239e+07    0  814 5.8459e+07 5.2239e+07  10.6%     -    0s
H    0     0                    5.759454e+07 5.2239e+07  9.30%     -    0s
     0     0 5.2620e+07    0  806 5.7595e+07 5.2620e+07  8.64%     -    0s
H    0     0                    5.550135e+07 5.2620e+07  5.19%     -    0s
     0     2 5.2620e+07    0  802 5.5501e+07 5.2620e+07  5.19%     -    0s
H   29    32                    5.468415e+07 5.2655e+07  3.71%  1065    1s
H  202    60                    5.466125e+07 5.2915e+07  3.19%   449    2s
H  208    60                    5.466122e+07 5.2915e+07  3.19%   449    2s
H  347    46                    5.456689e+07 5.3341e+07  2.25%   462    3s
* 1092   455              33    5.456268e+07 5.4563e+07  0.00%   229    4s

Cutting planes:
  Gomory: 6
  Implied bound: 849
  MIR: 54
  Flow path: 1
  Inf proof: 2
  Relax-and-lift: 16

Explored 1095 nodes (260226 simplex iterations) in 4.43 seconds (6.84 work units)
Thread count was 8 (of 8 available processors)

Solution count 8: 5.45627e+07 5.45669e+07 5.46612e+07 ... 5.84586e+07

Optimal solution found (tolerance 1.00e-04)
Best objective 5.456267988900e+07, best bound 5.456267842711e+07, gap 0.0000%

Gurobi 10.0.1 (mac64[arm]) logging started Fri Sep 22 17:12:30 2023

Set parameter LogFile to value "results/scenario_capacity/CAP_h/CAP_h_-50/mip_log.txt"
Gurobi Optimizer version 10.0.1 build v10.0.1rc0 (mac64[arm])

CPU model: Apple M1
Thread count: 8 physical cores, 8 logical processors, using up to 8 threads

Optimize a model with 1724 rows, 6293 columns and 24662 nonzeros
Model fingerprint: 0xb0a769dd
Model has 8978 general constraints
Variable types: 1 continuous, 6292 integer (408 binary)
Coefficient statistics:
  Matrix range     [6e-02, 3e+05]
  Objective range  [9e-02, 2e+05]
  Bounds range     [1e+00, 2e+07]
  RHS range        [4e+03, 2e+04]
  GenCon rhs range [1e+00, 1e+00]
  GenCon coe range [1e+00, 1e+00]
Presolve removed 114 rows and 546 columns
Presolve time: 0.11s
Presolved: 1610 rows, 5747 columns, 22997 nonzeros
Presolved model has 4 SOS constraint(s)
Variable types: 0 continuous, 5747 integer (34 binary)

Root relaxation: objective 5.158397e+07, 6626 iterations, 0.07 seconds (0.08 work units)

    Nodes    |    Current Node    |     Objective Bounds      |     Work
 Expl Unexpl |  Obj  Depth IntInf | Incumbent    BestBd   Gap | It/Node Time

     0     0 5.1584e+07    0  359          - 5.1584e+07      -     -    0s
     0     0 5.1662e+07    0  593          - 5.1662e+07      -     -    0s
     0     0 5.1674e+07    0  596          - 5.1674e+07      -     -    0s
     0     0 5.1675e+07    0  599          - 5.1675e+07      -     -    0s
H    0     0                    5.845859e+07 5.2236e+07  10.6%     -    0s
     0     0 5.2236e+07    0  894 5.8459e+07 5.2236e+07  10.6%     -    0s
     0     0 5.2236e+07    0  917 5.8459e+07 5.2236e+07  10.6%     -    0s
     0     0 5.2236e+07    0 1020 5.8459e+07 5.2236e+07  10.6%     -    0s
     0     0 5.2236e+07    0 1020 5.8459e+07 5.2236e+07  10.6%     -    0s
     0     0 5.2239e+07    0  814 5.8459e+07 5.2239e+07  10.6%     -    0s
H    0     0                    5.759454e+07 5.2239e+07  9.30%     -    0s
     0     0 5.2620e+07    0  806 5.7595e+07 5.2620e+07  8.64%     -    0s
H    0     0                    5.550135e+07 5.2620e+07  5.19%     -    0s
     0     2 5.2620e+07    0  802 5.5501e+07 5.2620e+07  5.19%     -    1s
H   29    32                    5.468415e+07 5.2655e+07  3.71%  1065    1s
H  202    60                    5.466125e+07 5.2915e+07  3.19%   449    3s
H  208    60                    5.466122e+07 5.2915e+07  3.19%   449    3s
H  347    46                    5.456689e+07 5.3341e+07  2.25%   462    4s
   496    55 5.4160e+07    9  954 5.4567e+07 5.3993e+07  1.05%   446    5s
* 1092   455              33    5.456268e+07 5.4563e+07  0.00%   229    5s

Cutting planes:
  Gomory: 6
  Implied bound: 849
  MIR: 54
  Flow path: 1
  Inf proof: 2
  Relax-and-lift: 16

Explored 1095 nodes (260226 simplex iterations) in 5.73 seconds (6.84 work units)
Thread count was 8 (of 8 available processors)

Solution count 8: 5.45627e+07 5.45669e+07 5.46612e+07 ... 5.84586e+07

Optimal solution found (tolerance 1.00e-04)
Best objective 5.456267988900e+07, best bound 5.456267842711e+07, gap 0.0000%

Gurobi 10.0.1 (mac64[arm]) logging started Fri Sep 22 17:19:36 2023

Set parameter LogFile to value "results/scenario_capacity/CAP_h/CAP_h_-50/mip_log.txt"
Gurobi Optimizer version 10.0.1 build v10.0.1rc0 (mac64[arm])

CPU model: Apple M1
Thread count: 8 physical cores, 8 logical processors, using up to 8 threads

Optimize a model with 1724 rows, 6293 columns and 24662 nonzeros
Model fingerprint: 0x4f70dff8
Model has 8978 general constraints
Variable types: 1 continuous, 6292 integer (408 binary)
Coefficient statistics:
  Matrix range     [6e-02, 3e+05]
  Objective range  [9e-02, 2e+05]
  Bounds range     [1e+00, 2e+07]
  RHS range        [4e+03, 2e+04]
  GenCon rhs range [1e+00, 1e+00]
  GenCon coe range [1e+00, 1e+00]
Presolve removed 124 rows and 556 columns
Presolve time: 0.09s
Presolved: 1600 rows, 5737 columns, 22975 nonzeros
Presolved model has 4 SOS constraint(s)
Variable types: 0 continuous, 5737 integer (34 binary)

Root relaxation: objective 5.698807e+07, 6430 iterations, 0.07 seconds (0.09 work units)

    Nodes    |    Current Node    |     Objective Bounds      |     Work
 Expl Unexpl |  Obj  Depth IntInf | Incumbent    BestBd   Gap | It/Node Time

     0     0 5.6988e+07    0  355          - 5.6988e+07      -     -    0s
     0     0 5.7239e+07    0  670          - 5.7239e+07      -     -    0s
     0     0 5.7248e+07    0  674          - 5.7248e+07      -     -    0s
     0     0 5.7248e+07    0  677          - 5.7248e+07      -     -    0s
     0     0 5.7248e+07    0  676          - 5.7248e+07      -     -    0s
H    0     0                    6.386641e+07 5.7620e+07  9.78%     -    0s
     0     0 5.7642e+07    0  951 6.3866e+07 5.7642e+07  9.75%     -    0s
     0     0 5.7642e+07    0  918 6.3866e+07 5.7642e+07  9.75%     -    0s
     0     0 5.7642e+07    0  918 6.3866e+07 5.7642e+07  9.75%     -    0s
     0     0 5.7642e+07    0  920 6.3866e+07 5.7642e+07  9.75%     -    0s
     0     0 5.7642e+07    0  921 6.3866e+07 5.7642e+07  9.75%     -    0s
     0     0 5.7679e+07    0  975 6.3866e+07 5.7679e+07  9.69%     -    0s
     0     0 5.7680e+07    0  815 6.3866e+07 5.7680e+07  9.69%     -    0s
     0     0 5.7680e+07    0  819 6.3866e+07 5.7680e+07  9.69%     -    0s
     0     0 5.7687e+07    0  955 6.3866e+07 5.7687e+07  9.68%     -    0s
H    0     0                    6.168006e+07 5.7690e+07  6.47%     -    0s
H    0     0                    6.167160e+07 5.7690e+07  6.46%     -    0s
     0     0 5.7870e+07    0  825 6.1672e+07 5.7870e+07  6.16%     -    0s
     0     0 5.8165e+07    0  992 6.1672e+07 5.8165e+07  5.69%     -    0s
     0     0 5.8165e+07    0 1004 6.1672e+07 5.8165e+07  5.69%     -    0s
     0     0 5.8203e+07    0  903 6.1672e+07 5.8203e+07  5.62%     -    0s
H    0     0                    6.058568e+07 5.8203e+07  3.93%     -    0s
     0     0 5.8215e+07    0  909 6.0586e+07 5.8215e+07  3.91%     -    0s
     0     0 5.8359e+07    0  846 6.0586e+07 5.8359e+07  3.68%     -    0s
     0     0 5.8496e+07    0  841 6.0586e+07 5.8496e+07  3.45%     -    0s
H    0     0                    6.058513e+07 5.8496e+07  3.45%     -    1s
     0     2 5.8496e+07    0  838 6.0585e+07 5.8496e+07  3.45%     -    1s
H   29    32                    6.054885e+07 5.8496e+07  3.39%  1034    1s
*  238   132              18    6.044620e+07 5.8496e+07  3.23%   397    2s
*  259   128              19    6.041002e+07 5.8496e+07  3.17%   383    2s
H  439   152                    6.039765e+07 5.8496e+07  3.15%   379    3s
H  440   152                    6.028566e+07 5.8496e+07  2.97%   378    3s
H  516   188                    6.028257e+07 5.8906e+07  2.28%   389    3s
H  519   188                    6.027935e+07 5.8906e+07  2.28%   387    3s
H  523   188                    6.027910e+07 5.8906e+07  2.28%   385    3s
H  526   188                    6.027910e+07 5.8906e+07  2.28%   382    3s
* 1438   691             119    6.027909e+07 5.9043e+07  2.05%   174    4s
H 1515   117                    5.997276e+07 5.9043e+07  1.55%   166    4s
  1516    76 5.9848e+07   10  839 5.9973e+07 5.9043e+07  1.55%   166    5s
H 1533    82                    5.997011e+07 5.9043e+07  1.55%   164    7s

Cutting planes:
  Gomory: 3
  Implied bound: 478
  Projected implied bound: 3
  MIR: 17
  Flow cover: 50
  Inf proof: 2
  Relax-and-lift: 15

Explored 1803 nodes (371993 simplex iterations) in 9.42 seconds (15.50 work units)
Thread count was 8 (of 8 available processors)

Solution count 10: 5.99701e+07 5.99728e+07 6.02791e+07 ... 6.041e+07

Optimal solution found (tolerance 1.00e-04)
Best objective 5.997010539000e+07, best bound 5.997010539000e+07, gap 0.0000%

Gurobi 10.0.1 (mac64[arm]) logging started Fri Sep 22 17:49:11 2023

Set parameter LogFile to value "results/scenario_capacity/CAP_h/CAP_h_-50/mip_log.txt"
Gurobi Optimizer version 10.0.1 build v10.0.1rc0 (mac64[arm])

CPU model: Apple M1
Thread count: 8 physical cores, 8 logical processors, using up to 8 threads

Optimize a model with 1694 rows, 6293 columns and 24572 nonzeros
Model fingerprint: 0x7658a108
Model has 8978 general constraints
Variable types: 1 continuous, 6292 integer (408 binary)
Coefficient statistics:
  Matrix range     [6e-02, 3e+05]
  Objective range  [9e-02, 2e+05]
  Bounds range     [1e+00, 2e+07]
  RHS range        [4e+03, 2e+04]
  GenCon rhs range [1e+00, 1e+00]
  GenCon coe range [1e+00, 1e+00]
Presolve removed 67 rows and 502 columns
Presolve time: 0.12s
Presolved: 1627 rows, 5791 columns, 23138 nonzeros
Presolved model has 4 SOS constraint(s)
Variable types: 0 continuous, 5791 integer (34 binary)

Root relaxation: objective 5.376924e+07, 6064 iterations, 0.06 seconds (0.08 work units)

    Nodes    |    Current Node    |     Objective Bounds      |     Work
 Expl Unexpl |  Obj  Depth IntInf | Incumbent    BestBd   Gap | It/Node Time

     0     0 5.3769e+07    0  355          - 5.3769e+07      -     -    0s
     0     0 5.3846e+07    0  592          - 5.3846e+07      -     -    0s
     0     0 5.3858e+07    0  600          - 5.3858e+07      -     -    0s
     0     0 5.3858e+07    0  602          - 5.3858e+07      -     -    0s
     0     0 5.3858e+07    0  603          - 5.3858e+07      -     -    0s
     0     0 5.4419e+07    0  876          - 5.4419e+07      -     -    0s
     0     0 5.4419e+07    0  986          - 5.4419e+07      -     -    0s
     0     0 5.4419e+07    0  989          - 5.4419e+07      -     -    0s
     0     0 5.4419e+07    0  990          - 5.4419e+07      -     -    0s
H    0     0                    5.904886e+07 5.4419e+07  7.84%     -    0s
     0     0 5.4432e+07    0  882 5.9049e+07 5.4432e+07  7.82%     -    0s
     0     0 5.4598e+07    0  870 5.9049e+07 5.4598e+07  7.54%     -    0s
H    0     0                    5.742419e+07 5.4598e+07  4.92%     -    0s
     0     2 5.4598e+07    0  868 5.7424e+07 5.4598e+07  4.92%     -    0s
H   30    34                    5.740917e+07 5.4963e+07  4.26%   740    1s
H   32    34                    5.740432e+07 5.4963e+07  4.25%   725    1s
H   36    34                    5.739885e+07 5.4963e+07  4.24%   686    1s
H   69    58                    5.739673e+07 5.4963e+07  4.24%   551    1s
H   69    58                    5.739241e+07 5.4963e+07  4.23%   551    1s
H   71    58                    5.739209e+07 5.4963e+07  4.23%   555    1s
*  148    92              11    5.700907e+07 5.5089e+07  3.37%   444    2s
H  354   128                    5.690217e+07 5.5795e+07  1.94%   365    3s
   679   109     cutoff   14      5.6902e+07 5.6219e+07  1.20%   333    5s
*  717   109              11    5.684615e+07 5.6345e+07  0.88%   332    5s
H  772   100                    5.680619e+07 5.6509e+07  0.52%   327    5s
H  774   100                    5.680238e+07 5.6509e+07  0.52%   326    5s
*  777   100              10    5.674764e+07 5.6509e+07  0.42%   325    5s

Cutting planes:
  Gomory: 3
  Implied bound: 842
  MIR: 55
  Flow path: 1
  Inf proof: 7
  Relax-and-lift: 25

Explored 909 nodes (285696 simplex iterations) in 5.44 seconds (8.08 work units)
Thread count was 8 (of 8 available processors)

Solution count 10: 5.67476e+07 5.68024e+07 5.68062e+07 ... 5.73988e+07

Optimal solution found (tolerance 1.00e-04)
Best objective 5.674763771000e+07, best bound 5.674263664637e+07, gap 0.0088%

Gurobi 10.0.1 (mac64[arm]) logging started Fri Sep 22 19:32:28 2023

Set parameter LogFile to value "results/scenario_capacity/CAP_h/CAP_h_-50/mip_log.txt"
Gurobi Optimizer version 10.0.1 build v10.0.1rc0 (mac64[arm])

CPU model: Apple M1
Thread count: 8 physical cores, 8 logical processors, using up to 8 threads

Optimize a model with 1694 rows, 6293 columns and 24572 nonzeros
Model fingerprint: 0xf2c00f5c
Model has 8978 general constraints
Variable types: 1 continuous, 6292 integer (408 binary)
Coefficient statistics:
  Matrix range     [6e-02, 3e+05]
  Objective range  [9e-02, 2e+05]
  Bounds range     [1e+00, 2e+07]
  RHS range        [4e+03, 2e+04]
  GenCon rhs range [1e+00, 1e+00]
  GenCon coe range [1e+00, 1e+00]
Presolve removed 67 rows and 502 columns
Presolve time: 0.09s
Presolved: 1627 rows, 5791 columns, 23173 nonzeros
Presolved model has 4 SOS constraint(s)
Variable types: 0 continuous, 5791 integer (34 binary)

Root relaxation: objective 5.733365e+07, 6703 iterations, 0.07 seconds (0.10 work units)

    Nodes    |    Current Node    |     Objective Bounds      |     Work
 Expl Unexpl |  Obj  Depth IntInf | Incumbent    BestBd   Gap | It/Node Time

     0     0 5.7334e+07    0  362          - 5.7334e+07      -     -    0s
     0     0 5.7480e+07    0  889          - 5.7480e+07      -     -    0s
H    0     0                    6.639749e+07 5.7496e+07  13.4%     -    0s
     0     0 5.8024e+07    0  926 6.6397e+07 5.8024e+07  12.6%     -    0s
     0     0 5.8024e+07    0  940 6.6397e+07 5.8024e+07  12.6%     -    0s
     0     0 5.8024e+07    0  927 6.6397e+07 5.8024e+07  12.6%     -    0s
     0     0 5.8028e+07    0 1011 6.6397e+07 5.8028e+07  12.6%     -    0s
H    0     0                    6.584160e+07 5.8028e+07  11.9%     -    0s
     0     0 5.8390e+07    0 1045 6.5842e+07 5.8390e+07  11.3%     -    0s
     0     0 5.8748e+07    0  985 6.5842e+07 5.8748e+07  10.8%     -    0s
     0     0 5.8820e+07    0 1183 6.5842e+07 5.8820e+07  10.7%     -    0s
     0     0 5.8824e+07    0 1151 6.5842e+07 5.8824e+07  10.7%     -    0s
H    0     0                    6.246917e+07 5.8849e+07  5.80%     -    0s
     0     0 5.8932e+07    0  961 6.2469e+07 5.8932e+07  5.66%     -    0s
     0     0 5.8956e+07    0  952 6.2469e+07 5.8956e+07  5.62%     -    1s
H    0     0                    6.209608e+07 5.8956e+07  5.06%     -    1s
H    0     0                    6.186724e+07 5.8956e+07  4.71%     -    1s
     0     2 5.8956e+07    0  952 6.1867e+07 5.8956e+07  4.71%     -    1s
H   33    39                    6.185149e+07 5.8956e+07  4.68%   857    2s
H   36    39                    6.112639e+07 5.8956e+07  3.55%   807    2s
H   75    60                    6.110978e+07 5.8956e+07  3.52%   612    2s
H   78    60                    6.076803e+07 5.8956e+07  2.98%   591    2s
H  136    86                    6.003803e+07 5.8956e+07  1.80%   462    2s
*  180    77              12    6.003427e+07 5.9069e+07  1.61%   396    3s
*  182    77              14    6.002206e+07 5.9098e+07  1.54%   399    3s
*  188    77              16    5.999219e+07 5.9098e+07  1.49%   404    3s
*  207    76              10    5.994525e+07 5.9101e+07  1.41%   400    3s
*  209    76              14    5.989941e+07 5.9101e+07  1.33%   405    3s

Cutting planes:
  Implied bound: 626
  MIR: 105
  Flow path: 1
  Inf proof: 1
  Relax-and-lift: 114

Explored 313 nodes (120493 simplex iterations) in 3.42 seconds (5.11 work units)
Thread count was 8 (of 8 available processors)

Solution count 10: 5.98994e+07 5.99453e+07 5.99922e+07 ... 6.18515e+07

Optimal solution found (tolerance 1.00e-04)
Best objective 5.989941379000e+07, best bound 5.989941379000e+07, gap 0.0000%
Discarded solution information

Gurobi 10.0.1 (mac64[arm]) logging started Fri Sep 22 20:49:02 2023

Set parameter LogFile to value "results/scenario_capacity/CAP_h/CAP_h_-50/mip_log.txt"
Gurobi Optimizer version 10.0.1 build v10.0.1rc0 (mac64[arm])

CPU model: Apple M1
Thread count: 8 physical cores, 8 logical processors, using up to 8 threads

Optimize a model with 1694 rows, 6293 columns and 24572 nonzeros
Model fingerprint: 0xf2c00f5c
Model has 8978 general constraints
Variable types: 1 continuous, 6292 integer (408 binary)
Coefficient statistics:
  Matrix range     [6e-02, 3e+05]
  Objective range  [9e-02, 2e+05]
  Bounds range     [1e+00, 2e+07]
  RHS range        [4e+03, 2e+04]
  GenCon rhs range [1e+00, 1e+00]
  GenCon coe range [1e+00, 1e+00]
Presolve removed 67 rows and 502 columns
Presolve time: 0.07s
Presolved: 1627 rows, 5791 columns, 23173 nonzeros
Presolved model has 4 SOS constraint(s)
Variable types: 0 continuous, 5791 integer (34 binary)

Root relaxation: objective 5.733365e+07, 6703 iterations, 0.07 seconds (0.10 work units)

    Nodes    |    Current Node    |     Objective Bounds      |     Work
 Expl Unexpl |  Obj  Depth IntInf | Incumbent    BestBd   Gap | It/Node Time

     0     0 5.7334e+07    0  362          - 5.7334e+07      -     -    0s
     0     0 5.7480e+07    0  889          - 5.7480e+07      -     -    0s
H    0     0                    6.639749e+07 5.7496e+07  13.4%     -    0s
     0     0 5.8024e+07    0  926 6.6397e+07 5.8024e+07  12.6%     -    0s
     0     0 5.8024e+07    0  940 6.6397e+07 5.8024e+07  12.6%     -    0s
     0     0 5.8024e+07    0  927 6.6397e+07 5.8024e+07  12.6%     -    0s
     0     0 5.8028e+07    0 1011 6.6397e+07 5.8028e+07  12.6%     -    0s
H    0     0                    6.584160e+07 5.8028e+07  11.9%     -    0s
     0     0 5.8390e+07    0 1045 6.5842e+07 5.8390e+07  11.3%     -    0s
     0     0 5.8748e+07    0  985 6.5842e+07 5.8748e+07  10.8%     -    0s
     0     0 5.8820e+07    0 1183 6.5842e+07 5.8820e+07  10.7%     -    0s
     0     0 5.8824e+07    0 1151 6.5842e+07 5.8824e+07  10.7%     -    0s
H    0     0                    6.246917e+07 5.8849e+07  5.80%     -    0s
     0     0 5.8932e+07    0  961 6.2469e+07 5.8932e+07  5.66%     -    0s
     0     0 5.8956e+07    0  952 6.2469e+07 5.8956e+07  5.62%     -    1s
H    0     0                    6.209608e+07 5.8956e+07  5.06%     -    1s
H    0     0                    6.186724e+07 5.8956e+07  4.71%     -    1s
     0     2 5.8956e+07    0  952 6.1867e+07 5.8956e+07  4.71%     -    1s
H   33    39                    6.185149e+07 5.8956e+07  4.68%   857    2s
H   36    39                    6.112639e+07 5.8956e+07  3.55%   807    2s
H   75    60                    6.110978e+07 5.8956e+07  3.52%   612    2s
H   78    60                    6.076803e+07 5.8956e+07  2.98%   591    2s
H  136    86                    6.003803e+07 5.8956e+07  1.80%   462    3s
*  180    77              12    6.003427e+07 5.9069e+07  1.61%   396    3s
*  182    77              14    6.002206e+07 5.9098e+07  1.54%   399    3s
*  188    77              16    5.999219e+07 5.9098e+07  1.49%   404    3s
*  207    76              10    5.994525e+07 5.9101e+07  1.41%   400    3s
*  209    76              14    5.989941e+07 5.9101e+07  1.33%   405    3s

Cutting planes:
  Implied bound: 626
  MIR: 105
  Flow path: 1
  Inf proof: 1
  Relax-and-lift: 114

Explored 313 nodes (120493 simplex iterations) in 3.99 seconds (5.11 work units)
Thread count was 8 (of 8 available processors)

Solution count 10: 5.98994e+07 5.99453e+07 5.99922e+07 ... 6.18515e+07

Optimal solution found (tolerance 1.00e-04)
Best objective 5.989941379000e+07, best bound 5.989941379000e+07, gap 0.0000%
Discarded solution information
